FourierSAT_Github_AIJ/benchmarks/MAXSAT_benchmarks/crafted/3/bipartite/maxcut-140-630-0.7/maxcut-140-630-0.7-15.cnf
c strEdges: 189  randomEdges: 441 
c degrees:  2  3 
c girth: 10 max: 8.032766  
c Hgirth mixed MAXCUT instance
c generated from an undirected graph
c to solve unweighted MaxCut
p cnf 140 1260
71 6 0
-71 -6 0
71 135 0
-71 -135 0
129 127 0
-129 -127 0
129 91 0
-129 -91 0
39 83 0
-39 -83 0
39 60 0
-39 -60 0
50 13 0
-50 -13 0
50 55 0
-50 -55 0
10 59 0
-10 -59 0
10 81 0
-10 -81 0
76 22 0
-76 -22 0
76 28 0
-76 -28 0
76 45 0
-76 -45 0
12 49 0
-12 -49 0
12 120 0
-12 -120 0
12 110 0
-12 -110 0
4 65 0
-4 -65 0
4 112 0
-4 -112 0
4 111 0
-4 -111 0
38 58 0
-38 -58 0
38 93 0
-38 -93 0
38 111 0
-38 -111 0
46 62 0
-46 -62 0
46 96 0
-46 -96 0
46 28 0
-46 -28 0
82 3 0
-82 -3 0
82 119 0
-82 -119 0
82 125 0
-82 -125 0
15 112 0
-15 -112 0
15 22 0
-15 -22 0
126 106 0
-126 -106 0
126 56 0
-126 -56 0
126 113 0
-126 -113 0
19 133 0
-19 -133 0
19 62 0
-19 -62 0
19 37 0
-19 -37 0
80 24 0
-80 -24 0
80 136 0
-80 -136 0
80 21 0
-80 -21 0
103 44 0
-103 -44 0
103 127 0
-103 -127 0
103 110 0
-103 -110 0
40 98 0
-40 -98 0
40 119 0
-40 -119 0
134 81 0
-134 -81 0
134 45 0
-134 -45 0
134 7 0
-134 -7 0
114 89 0
-114 -89 0
114 90 0
-114 -90 0
114 109 0
-114 -109 0
99 94 0
-99 -94 0
99 64 0
-99 -64 0
99 49 0
-99 -49 0
137 25 0
-137 -25 0
137 16 0
-137 -16 0
137 58 0
-137 -58 0
139 28 0
-139 -28 0
139 13 0
-139 -13 0
139 94 0
-139 -94 0
34 136 0
-34 -136 0
34 65 0
-34 -65 0
34 43 0
-34 -43 0
87 37 0
-87 -37 0
87 98 0
-87 -98 0
124 33 0
-124 -33 0
124 98 0
-124 -98 0
124 83 0
-124 -83 0
107 42 0
-107 -42 0
107 26 0
-107 -26 0
107 74 0
-107 -74 0
54 69 0
-54 -69 0
54 60 0
-54 -60 0
54 67 0
-54 -67 0
131 55 0
-131 -55 0
131 44 0
-131 -44 0
131 95 0
-131 -95 0
14 111 0
-14 -111 0
14 41 0
-14 -41 0
14 138 0
-14 -138 0
17 66 0
-17 -66 0
17 29 0
-17 -29 0
17 61 0
-17 -61 0
77 96 0
-77 -96 0
77 47 0
-77 -47 0
77 136 0
-77 -136 0
140 123 0
-140 -123 0
140 3 0
-140 -3 0
140 29 0
-140 -29 0
116 138 0
-116 -138 0
116 95 0
-116 -95 0
118 47 0
-118 -47 0
118 109 0
-118 -109 0
118 101 0
-118 -101 0
132 29 0
-132 -29 0
132 133 0
-132 -133 0
132 89 0
-132 -89 0
5 43 0
-5 -43 0
5 68 0
-5 -68 0
5 97 0
-5 -97 0
85 90 0
-85 -90 0
85 135 0
-85 -135 0
102 97 0
-102 -97 0
102 63 0
-102 -63 0
102 100 0
-102 -100 0
53 93 0
-53 -93 0
53 123 0
-53 -123 0
84 61 0
-84 -61 0
84 112 0
-84 -112 0
84 127 0
-84 -127 0
27 113 0
-27 -113 0
27 42 0
-27 -42 0
27 21 0
-27 -21 0
51 125 0
-51 -125 0
51 8 0
-51 -8 0
51 44 0
-51 -44 0
57 41 0
-57 -41 0
57 33 0
-57 -33 0
57 49 0
-57 -49 0
70 91 0
-70 -91 0
70 67 0
-70 -67 0
130 135 0
-130 -135 0
130 3 0
-130 -3 0
130 69 0
-130 -69 0
31 7 0
-31 -7 0
31 138 0
-31 -138 0
20 110 0
-20 -110 0
20 26 0
-20 -26 0
79 26 0
-79 -26 0
79 69 0
-79 -69 0
48 60 0
-48 -60 0
48 97 0
-48 -97 0
48 16 0
-48 -16 0
9 128 0
-9 -128 0
9 88 0
-9 -88 0
9 101 0
-9 -101 0
86 21 0
-86 -21 0
86 6 0
-86 -6 0
86 25 0
-86 -25 0
73 64 0
-73 -64 0
73 24 0
-73 -24 0
35 120 0
-35 -120 0
35 106 0
-35 -106 0
35 23 0
-35 -23 0
117 109 0
-117 -109 0
117 55 0
-117 -55 0
117 83 0
-117 -83 0
121 63 0
-121 -63 0
121 22 0
-121 -22 0
75 8 0
-75 -8 0
75 113 0
-75 -113 0
75 33 0
-75 -33 0
72 68 0
-72 -68 0
72 56 0
-72 -56 0
72 59 0
-72 -59 0
105 45 0
-105 -45 0
105 122 0
-105 -122 0
105 6 0
-105 -6 0
18 95 0
-18 -95 0
18 43 0
-18 -43 0
92 101 0
-92 -101 0
92 123 0
-92 -123 0
92 59 0
-92 -59 0
36 88 0
-36 -88 0
36 58 0
-36 -58 0
36 13 0
-36 -13 0
32 119 0
-32 -119 0
32 128 0
-32 -128 0
32 65 0
-32 -65 0
108 104 0
-108 -104 0
108 88 0
-108 -88 0
108 106 0
-108 -106 0
11 56 0
-11 -56 0
11 37 0
-11 -37 0
78 67 0
-78 -67 0
78 96 0
-78 -96 0
30 74 0
-30 -74 0
30 89 0
-30 -89 0
30 7 0
-30 -7 0
2 122 0
-2 -122 0
2 104 0
-2 -104 0
2 91 0
-2 -91 0
52 16 0
-52 -16 0
52 66 0
-52 -66 0
52 23 0
-52 -23 0
1 23 0
-1 -23 0
1 125 0
-1 -125 0
115 100 0
-115 -100 0
115 90 0
-115 -90 0
115 64 0
-115 -64 0
116 108 0
-116 -108 0
48 119 0
-48 -119 0
137 68 0
-137 -68 0
140 5 0
-140 -5 0
78 109 0
-78 -109 0
136 16 0
-136 -16 0
75 32 0
-75 -32 0
99 17 0
-99 -17 0
4 126 0
-4 -126 0
15 83 0
-15 -83 0
121 95 0
-121 -95 0
73 120 0
-73 -120 0
87 105 0
-87 -105 0
77 90 0
-77 -90 0
129 93 0
-129 -93 0
99 29 0
-99 -29 0
31 30 0
-31 -30 0
87 69 0
-87 -69 0
116 47 0
-116 -47 0
34 52 0
-34 -52 0
4 83 0
-4 -83 0
80 113 0
-80 -113 0
34 105 0
-34 -105 0
25 109 0
-25 -109 0
103 53 0
-103 -53 0
32 63 0
-32 -63 0
48 24 0
-48 -24 0
111 119 0
-111 -119 0
36 65 0
-36 -65 0
76 79 0
-76 -79 0
107 58 0
-107 -58 0
19 61 0
-19 -61 0
139 64 0
-139 -64 0
99 77 0
-99 -77 0
19 128 0
-19 -128 0
78 7 0
-78 -7 0
114 86 0
-114 -86 0
81 101 0
-81 -101 0
133 125 0
-133 -125 0
94 26 0
-94 -26 0
86 136 0
-86 -136 0
92 95 0
-92 -95 0
75 68 0
-75 -68 0
118 78 0
-118 -78 0
93 122 0
-93 -122 0
71 54 0
-71 -54 0
6 125 0
-6 -125 0
78 101 0
-78 -101 0
140 118 0
-140 -118 0
39 114 0
-39 -114 0
14 52 0
-14 -52 0
27 81 0
-27 -81 0
72 24 0
-72 -24 0
77 72 0
-77 -72 0
49 104 0
-49 -104 0
57 6 0
-57 -6 0
18 100 0
-18 -100 0
140 8 0
-140 -8 0
52 3 0
-52 -3 0
139 121 0
-139 -121 0
35 21 0
-35 -21 0
129 83 0
-129 -83 0
103 123 0
-103 -123 0
139 109 0
-139 -109 0
54 121 0
-54 -121 0
15 1 0
-15 -1 0
87 112 0
-87 -112 0
1 98 0
-1 -98 0
3 60 0
-3 -60 0
54 3 0
-54 -3 0
55 68 0
-55 -68 0
75 18 0
-75 -18 0
114 96 0
-114 -96 0
111 88 0
-111 -88 0
17 81 0
-17 -81 0
4 110 0
-4 -110 0
34 53 0
-34 -53 0
71 30 0
-71 -30 0
99 54 0
-99 -54 0
94 21 0
-94 -21 0
83 29 0
-83 -29 0
80 125 0
-80 -125 0
50 124 0
-50 -124 0
84 63 0
-84 -63 0
71 36 0
-71 -36 0
115 97 0
-115 -97 0
60 16 0
-60 -16 0
138 68 0
-138 -68 0
114 36 0
-114 -36 0
139 70 0
-139 -70 0
99 117 0
-99 -117 0
114 108 0
-114 -108 0
70 106 0
-70 -106 0
94 25 0
-94 -25 0
5 24 0
-5 -24 0
80 29 0
-80 -29 0
32 45 0
-32 -45 0
42 26 0
-42 -26 0
19 36 0
-19 -36 0
76 42 0
-76 -42 0
116 101 0
-116 -101 0
65 43 0
-65 -43 0
77 128 0
-77 -128 0
12 122 0
-12 -122 0
124 66 0
-124 -66 0
76 61 0
-76 -61 0
54 64 0
-54 -64 0
87 140 0
-87 -140 0
80 88 0
-80 -88 0
123 29 0
-123 -29 0
116 75 0
-116 -75 0
139 92 0
-139 -92 0
130 92 0
-130 -92 0
124 113 0
-124 -113 0
119 67 0
-119 -67 0
116 59 0
-116 -59 0
105 81 0
-105 -81 0
112 33 0
-112 -33 0
108 59 0
-108 -59 0
22 95 0
-22 -95 0
34 78 0
-34 -78 0
129 43 0
-129 -43 0
82 78 0
-82 -78 0
48 56 0
-48 -56 0
4 52 0
-4 -52 0
71 33 0
-71 -33 0
83 101 0
-83 -101 0
63 45 0
-63 -45 0
65 7 0
-65 -7 0
105 16 0
-105 -16 0
78 16 0
-78 -16 0
64 120 0
-64 -120 0
113 119 0
-113 -119 0
134 105 0
-134 -105 0
19 43 0
-19 -43 0
115 68 0
-115 -68 0
129 5 0
-129 -5 0
54 117 0
-54 -117 0
11 43 0
-11 -43 0
130 125 0
-130 -125 0
83 120 0
-83 -120 0
13 26 0
-13 -26 0
91 21 0
-91 -21 0
127 7 0
-127 -7 0
133 93 0
-133 -93 0
38 46 0
-38 -46 0
130 24 0
-130 -24 0
39 59 0
-39 -59 0
87 77 0
-87 -77 0
27 48 0
-27 -48 0
22 25 0
-22 -25 0
87 94 0
-87 -94 0
10 52 0
-10 -52 0
105 98 0
-105 -98 0
19 22 0
-19 -22 0
50 62 0
-50 -62 0
117 52 0
-117 -52 0
19 88 0
-19 -88 0
133 111 0
-133 -111 0
12 80 0
-12 -80 0
33 88 0
-33 -88 0
46 18 0
-46 -18 0
27 73 0
-27 -73 0
112 44 0
-112 -44 0
97 135 0
-97 -135 0
31 135 0
-31 -135 0
35 68 0
-35 -68 0
82 44 0
-82 -44 0
115 135 0
-115 -135 0
130 95 0
-130 -95 0
15 91 0
-15 -91 0
133 45 0
-133 -45 0
130 16 0
-130 -16 0
37 64 0
-37 -64 0
49 138 0
-49 -138 0
73 44 0
-73 -44 0
66 74 0
-66 -74 0
52 110 0
-52 -110 0
73 72 0
-73 -72 0
78 95 0
-78 -95 0
66 67 0
-66 -67 0
33 91 0
-33 -91 0
98 74 0
-98 -74 0
78 3 0
-78 -3 0
12 3 0
-12 -3 0
107 51 0
-107 -51 0
131 106 0
-131 -106 0
71 124 0
-71 -124 0
38 124 0
-38 -124 0
9 81 0
-9 -81 0
12 73 0
-12 -73 0
46 102 0
-46 -102 0
32 26 0
-32 -26 0
33 125 0
-33 -125 0
34 66 0
-34 -66 0
94 109 0
-94 -109 0
43 45 0
-43 -45 0
53 79 0
-53 -79 0
37 90 0
-37 -90 0
51 104 0
-51 -104 0
44 90 0
-44 -90 0
131 28 0
-131 -28 0
106 133 0
-106 -133 0
94 125 0
-94 -125 0
140 6 0
-140 -6 0
82 37 0
-82 -37 0
31 120 0
-31 -120 0
35 95 0
-35 -95 0
34 20 0
-34 -20 0
136 66 0
-136 -66 0
24 28 0
-24 -28 0
24 120 0
-24 -120 0
27 98 0
-27 -98 0
22 128 0
-22 -128 0
118 61 0
-118 -61 0
30 91 0
-30 -91 0
132 86 0
-132 -86 0
50 74 0
-50 -74 0
89 42 0
-89 -42 0
108 123 0
-108 -123 0
106 37 0
-106 -37 0
117 97 0
-117 -97 0
58 3 0
-58 -3 0
20 1 0
-20 -1 0
131 96 0
-131 -96 0
59 95 0
-59 -95 0
103 63 0
-103 -63 0
22 69 0
-22 -69 0
55 101 0
-55 -101 0
79 11 0
-79 -11 0
130 26 0
-130 -26 0
92 125 0
-92 -125 0
75 120 0
-75 -120 0
127 106 0
-127 -106 0
40 20 0
-40 -20 0
64 109 0
-64 -109 0
126 7 0
-126 -7 0
10 87 0
-10 -87 0
57 91 0
-57 -91 0
32 91 0
-32 -91 0
129 30 0
-129 -30 0
53 104 0
-53 -104 0
12 63 0
-12 -63 0
30 33 0
-30 -33 0
85 86 0
-85 -86 0
86 113 0
-86 -113 0
50 130 0
-50 -130 0
77 70 0
-77 -70 0
76 14 0
-76 -14 0
10 104 0
-10 -104 0
139 136 0
-139 -136 0
10 37 0
-10 -37 0
132 49 0
-132 -49 0
3 21 0
-3 -21 0
98 81 0
-98 -81 0
114 104 0
-114 -104 0
21 101 0
-21 -101 0
53 75 0
-53 -75 0
114 42 0
-114 -42 0
118 37 0
-118 -37 0
36 55 0
-36 -55 0
99 97 0
-99 -97 0
79 60 0
-79 -60 0
65 133 0
-65 -133 0
8 74 0
-8 -74 0
73 123 0
-73 -123 0
111 41 0
-111 -41 0
72 135 0
-72 -135 0
47 120 0
-47 -120 0
13 94 0
-13 -94 0
94 138 0
-94 -138 0
77 26 0
-77 -26 0
124 74 0
-124 -74 0
50 102 0
-50 -102 0
19 14 0
-19 -14 0
137 3 0
-137 -3 0
70 48 0
-70 -48 0
92 74 0
-92 -74 0
46 40 0
-46 -40 0
15 92 0
-15 -92 0
6 43 0
-6 -43 0
116 118 0
-116 -118 0
140 130 0
-140 -130 0
137 102 0
-137 -102 0
14 55 0
-14 -55 0
35 59 0
-35 -59 0
38 45 0
-38 -45 0
85 45 0
-85 -45 0
131 47 0
-131 -47 0
86 8 0
-86 -8 0
127 96 0
-127 -96 0
106 55 0
-106 -55 0
32 22 0
-32 -22 0
9 125 0
-9 -125 0
15 66 0
-15 -66 0
83 69 0
-83 -69 0
121 92 0
-121 -92 0
77 36 0
-77 -36 0
2 25 0
-2 -25 0
103 25 0
-103 -25 0
131 49 0
-131 -49 0
89 45 0
-89 -45 0
72 18 0
-72 -18 0
132 72 0
-132 -72 0
117 58 0
-117 -58 0
4 26 0
-4 -26 0
39 106 0
-39 -106 0
5 81 0
-5 -81 0
1 74 0
-1 -74 0
86 18 0
-86 -18 0
71 18 0
-71 -18 0
66 123 0
-66 -123 0
105 96 0
-105 -96 0
53 97 0
-53 -97 0
39 92 0
-39 -92 0
70 33 0
-70 -33 0
118 130 0
-118 -130 0
50 93 0
-50 -93 0
77 74 0
-77 -74 0
72 108 0
-72 -108 0
102 8 0
-102 -8 0
24 23 0
-24 -23 0
129 120 0
-129 -120 0
79 43 0
-79 -43 0
115 110 0
-115 -110 0
82 118 0
-82 -118 0
105 52 0
-105 -52 0
71 11 0
-71 -11 0
72 96 0
-72 -96 0
32 93 0
-32 -93 0
2 44 0
-2 -44 0
96 88 0
-96 -88 0
54 16 0
-54 -16 0
22 58 0
-22 -58 0
54 91 0
-54 -91 0
58 60 0
-58 -60 0
118 74 0
-118 -74 0
107 97 0
-107 -97 0
92 60 0
-92 -60 0
57 47 0
-57 -47 0
72 60 0
-72 -60 0
36 49 0
-36 -49 0
108 101 0
-108 -101 0
93 41 0
-93 -41 0
1 136 0
-1 -136 0
38 86 0
-38 -86 0
70 97 0
-70 -97 0
44 98 0
-44 -98 0
61 74 0
-61 -74 0
65 104 0
-65 -104 0
107 86 0
-107 -86 0
57 32 0
-57 -32 0
136 110 0
-136 -110 0
117 24 0
-117 -24 0
115 7 0
-115 -7 0
39 37 0
-39 -37 0
31 65 0
-31 -65 0
40 137 0
-40 -137 0
28 33 0
-28 -33 0
117 8 0
-117 -8 0
17 97 0
-17 -97 0
4 8 0
-4 -8 0
114 32 0
-114 -32 0
19 35 0
-19 -35 0
102 33 0
-102 -33 0
57 59 0
-57 -59 0
137 112 0
-137 -112 0
12 20 0
-12 -20 0
19 95 0
-19 -95 0
84 105 0
-84 -105 0
57 108 0
-57 -108 0
18 64 0
-18 -64 0
34 127 0
-34 -127 0
5 23 0
-5 -23 0
85 63 0
-85 -63 0
83 55 0
-83 -55 0
25 61 0
-25 -61 0
75 104 0
-75 -104 0
138 101 0
-138 -101 0
114 110 0
-114 -110 0
129 8 0
-129 -8 0
117 13 0
-117 -13 0
108 113 0
-108 -113 0
39 44 0
-39 -44 0
6 67 0
-6 -67 0
44 28 0
-44 -28 0
135 109 0
-135 -109 0
28 95 0
-28 -95 0
131 120 0
-131 -120 0
106 69 0
-106 -69 0
78 119 0
-78 -119 0
131 116 0
-131 -116 0
20 33 0
-20 -33 0
133 67 0
-133 -67 0
22 106 0
-22 -106 0
13 81 0
-13 -81 0
114 25 0
-114 -25 0
9 93 0
-9 -93 0
124 125 0
-124 -125 0
110 122 0
-110 -122 0
55 123 0
-55 -123 0
99 22 0
-99 -22 0
51 23 0
-51 -23 0
72 16 0
-72 -16 0
65 44 0
-65 -44 0
80 44 0
-80 -44 0
102 128 0
-102 -128 0
94 64 0
-94 -64 0
50 88 0
-50 -88 0
44 125 0
-44 -125 0
20 112 0
-20 -112 0
91 8 0
-91 -8 0
27 9 0
-27 -9 0
51 31 0
-51 -31 0
137 121 0
-137 -121 0
129 59 0
-129 -59 0
31 62 0
-31 -62 0
11 49 0
-11 -49 0
30 60 0
-30 -60 0
73 109 0
-73 -109 0
134 57 0
-134 -57 0
131 17 0
-131 -17 0
71 96 0
-71 -96 0
117 42 0
-117 -42 0
48 65 0
-48 -65 0
118 43 0
-118 -43 0
10 73 0
-10 -73 0
38 121 0
-38 -121 0
59 96 0
-59 -96 0
27 125 0
-27 -125 0
6 133 0
-6 -133 0
98 69 0
-98 -69 0
51 43 0
-51 -43 0
7 26 0
-7 -26 0
60 119 0
-60 -119 0
83 16 0
-83 -16 0
73 95 0
-73 -95 0
92 62 0
-92 -62 0
51 25 0
-51 -25 0
35 42 0
-35 -42 0
50 1 0
-50 -1 0
